InboundTrucks  = 12;
OutboundTrucks = 8;
InboundDoors   = 4;
OutboundDoors  = 4;
ReleaseTime    = [81,14,3,94,35,31,28,17,94,13,86,94];
UnloadTime     = [37,22,38,33,21,20,22,26,27,36,39,20];
LoadTime       = [13,8,15,13,11,8,12,14];
TransferTime   = [| 27,10,0,37,0,0,0,23 | 31,0,15,0,0,32,32,48 | 0,0,0,44,17,0,15,45 | 0,50,0,0,0,0,0,12 | 24,28,15,0,0,34,27,0 | 0,0,0,33,0,0,0,14 | 48,50,0,0,0,0,39,34 | 0,0,45,24,0,0,0,0 | 30,0,27,14,23,46,30,23 | 41,35,0,19,26,0,0,0 | 44,0,47,37,0,0,33,24 | 0,42,41,0,13,0,0,50 |];
